NAME : d2103
TYPE : OP
DIMENSION : 2103
COST_LIMIT : 40225
ROUTE_NODES : 1081
ROUTE_SCORE : 77333
ROUTE_COST : 40222
NODE_SEQUENCE_SECTION
1
741
742
743
744
745
746
747
748
792
793
794
795
796
797
1317
798
799
800
801
802
1318
1319
1320
1321
1322
1323
1324
1325
1371
1370
1369
1368
1327
1328
1329
1330
1331
1332
1333
1334
1335
1336
1337
1338
1339
1340
1341
1342
1343
1344
1345
1346
1347
1348
1349
1350
1351
1352
1353
1354
1355
1356
1399
1400
1401
1402
1403
1404
1405
1406
1407
1408
1409
1410
1411
1412
1413
1414
1415
1416
1417
1398
1397
1396
1395
1394
1393
1392
1391
1390
1389
1388
1387
1386
1385
1384
1383
1382
1381
1380
1379
1378
1437
1436
1435
1434
1433
1432
1431
1430
1429
1428
1427
1426
1425
1424
1423
1422
1421
1420
1419
1418
1455
1456
1457
1458
1459
1460
1461
1462
1463
1464
1465
1466
1467
1468
1469
1470
1471
1472
1473
1474
1475
1476
1477
1478
1479
1480
1481
1482
1483
1484
1485
1486
1449
1448
1447
1446
1445
1444
1443
1442
1441
1440
1439
1438
1497
1496
1495
1494
1493
1492
1491
1490
1489
1488
1487
1508
1509
1510
1511
1512
1513
1514
1515
1516
1517
1518
1519
1520
1521
1522
1523
1524
1525
1526
1527
1528
1529
1530
1531
1532
1533
1534
1535
1536
1537
1538
1539
1540
1541
1579
1578
1577
1576
1575
1574
1573
1572
1571
1570
1569
1568
1567
1566
1565
1564
1563
1562
1561
1560
1559
1558
1617
1616
1615
1614
1613
1612
1611
1610
1609
1608
1607
1606
1605
1604
1603
1602
1601
1600
1599
1598
1597
1596
1595
1594
1593
1580
1581
1582
1583
1584
1592
1591
1590
1589
1588
1585
1586
1587
2058
2062
2061
2060
2074
2075
2076
2077
2078
2079
2080
2081
2082
2083
2084
2085
1647
1646
1645
1644
1643
1642
1641
1640
1639
1638
1637
1636
1635
1634
1633
1632
1631
1630
1629
1628
1627
1626
1625
1624
1623
1622
1621
1620
1619
1618
1677
1676
1675
1674
1673
1672
1671
1670
1669
1668
1667
1666
1665
1664
1663
1662
1661
1660
1659
1658
1657
1656
1655
1654
1653
1652
1651
1650
1649
1648
1707
1706
1705
1704
1703
1702
1701
1700
1699
1698
1697
1696
1695
1694
1693
1692
1691
1690
1689
1688
1687
1686
1685
1684
1683
1682
1681
1680
1679
1678
1737
1736
1735
1734
1733
1732
1731
1730
1729
1728
1727
1726
1725
1724
1723
1722
1721
1720
1719
1718
1717
1716
1715
1714
1713
1712
1711
1710
1709
1708
1767
1766
1765
1764
1763
1762
1761
1760
1759
1758
1757
1756
1755
1754
1753
1752
1751
1750
1749
1748
1747
1746
1745
1744
1743
1742
1741
1740
1739
1738
1797
1796
1795
1794
1793
1792
1791
1790
1789
1788
1787
1786
1785
1784
1783
1782
1781
1780
1779
1778
1777
1776
1775
1774
1773
1772
1771
1770
1769
1768
2088
2089
2093
2092
2091
2094
1827
1826
1825
1824
1823
1822
1821
1820
1819
1818
1817
1816
1815
1814
1813
1812
1811
1810
1809
1808
1807
1806
1805
1804
1803
1802
1801
1800
1799
1798
1857
1856
1855
1854
1853
1852
1851
1850
1849
1848
1847
1846
1845
1844
1843
1842
1841
1840
1839
1838
1837
1836
1835
1834
1833
1832
1831
1830
1829
1828
1887
1886
1885
1884
1883
1882
1881
1880
1879
1878
1877
1876
1875
1874
1873
1872
1871
1870
1869
1868
1867
1866
1865
1864
1863
1862
1861
1860
1859
1858
1917
1916
1915
1914
1913
1912
1911
1910
1909
1908
1907
1906
1905
1904
1903
1902
1901
1900
1899
1898
1897
1896
1895
1894
1893
1892
1891
1890
1889
1888
1945
1946
1947
1948
1949
1950
1951
1944
1943
1942
1941
1940
1939
1938
1937
1936
1935
1934
1933
1932
1931
1930
1929
1928
1927
1926
1925
1924
1923
1922
1921
1920
1919
1918
1977
1976
1975
1974
1973
1972
1971
1970
1969
1968
1967
1966
1965
1964
1963
1962
1961
1960
1959
1958
1957
1956
1955
1954
1953
1952
2003
2004
2005
2006
2007
2008
2009
2010
2011
2012
2013
2002
2001
2000
1999
1998
1997
1996
1995
1994
1993
1992
1991
1990
1989
1988
1987
1986
1985
1984
1983
1982
1981
1980
1979
1978
2037
2036
2035
2034
2033
2032
2031
2030
2029
2028
2027
2026
2025
2024
2023
2022
2021
2020
2019
2018
2017
2016
2015
2014
2054
2053
2052
2051
2050
2049
2048
2047
2046
2045
2044
2043
2042
2041
2040
2039
2038
1316
1309
1308
1307
1306
1305
1304
1303
1302
1301
1300
1299
1298
1297
1296
1295
1294
1293
1292
1291
1290
1289
1288
1287
1286
1285
1284
1283
1282
1281
1280
1279
1278
1277
1276
1275
1274
1310
1273
1272
1271
1270
1269
1268
1267
1245
1208
1207
1159
1160
1161
1162
1163
1164
1165
1166
1167
1168
1216
1217
1218
1219
1171
1172
1220
1221
1222
1223
1224
1225
1226
1227
1228
1229
1230
1231
1232
1233
1234
1235
1187
1186
1185
1184
1183
1182
1181
1180
1122
1123
1124
1125
1126
1127
1128
1129
1084
1083
1082
1081
1080
1079
1078
1077
1076
1075
1074
1119
1118
1073
1072
1071
1116
1115
1114
1113
1112
1067
1066
1111
1110
1065
1064
1063
1062
1107
1106
1105
1104
1103
1102
1101
1100
1099
1098
1097
1096
1095
1094
1093
1092
1091
1090
1089
1088
1135
1136
1148
1149
1150
1151
1152
1153
1201
1200
1199
1198
1197
1196
1248
1247
1246
1262
1261
1260
1259
1258
1257
1249
1250
1251
1252
1253
1240
1241
1192
1191
1144
1141
1140
1139
1134
1131
1086
1085
1041
1040
1039
1038
1035
1032
1029
985
982
938
935
934
933
936
939
940
941
942
943
944
945
946
947
948
995
996
997
998
999
1000
1001
1002
1003
1004
1005
1006
1007
1008
1009
1010
1011
1012
1013
966
967
968
969
970
971
972
973
974
1021
1022
1023
976
977
978
979
1026
1027
1028
981
980
926
879
878
877
876
923
922
921
920
919
918
917
916
869
868
915
914
913
912
911
910
909
908
907
906
905
904
903
902
855
854
853
852
851
898
897
896
895
894
893
892
891
890
889
888
887
886
839
840
20
24
23
30
31
76
117
118
119
120
123
204
208
207
210
211
218
265
309
308
312
313
316
360
403
402
404
405
407
406
450
499
502
546
549
593
596
599
602
605
606
651
652
700
701
707
710
714
9
10
11
7
-1
DEPOT_SECTION
1
-1
EOF
